NAME : rnd30_50.tsp
TYPE : TSP
DIMENSION : 50
EDGE_WEIGHT_TYPE : EUC_2D
NODE_COORD_SECTION
1 38 550
2 338 58
3 324 846
4 647 870
5 739 638
6 601 9
7 177 837
8 83 562
9 349 575
10 597 316
11 541 406
12 686 474
13 616 507
14 486 154
15 911 439
16 316 686
17 744 308
18 80 206
19 462 237
20 333 743
21 485 34
22 486 105
23 672 616
24 737 390
25 398 917
26 184 369
27 613 811
28 947 32
29 451 500
30 683 664
31 258 554
32 883 810
33 457 495
34 667 644
35 882 988
36 376 904
37 808 587
38 31 71
39 997 183
40 246 726
41 859 30
42 759 266
43 699 955
44 50 121
45 196 636
46 622 291
47 415 388
48 933 889
49 501 301
50 197 570
